%%%mzn-stat: initTime=0.034169393
%%%mzn-stat: objective=239
%%%mzn-stat: nodes=27162
%%%mzn-stat: restarts=7
%%%mzn-stat: peakDepth=318
%%%mzn-stat: solveTime=10.511564824
%%%mzn-stat: variables=1117
%%%mzn-stat: propagators=814
%%%mzn-stat: failures=24684
%%%mzn-stat: propagations=1623585
%%%mzn-stat: nogoods=24684
%%%mzn-stat: AverageConflictSize=36.837546588883484
%%%mzn-stat: NumUnitNogoodsLearned=227
%%%mzn-stat: AverageLearnedNogoodLength=60.07267865824016
%%%mzn-stat: AverageBacktrackAmount=0
%%%mzn-stat: AverageLbd=19.7808701993194
%%%mzn-stat-end
maxleg = 239;
succ = array1d(1..50,[32, 1, 12, 10, 46, 40, 50, 16, 5, 25, 42, 28, 4, 34, 22, 47, 39, 27, 31, 36, 37, 26, 38, 17, 20, 33, 11, 30, 18, 48, 23, 41, 8, 9, 19, 2, 49, 29, 3, 43, 24, 13, 45, 7, 44, 35, 21, 15, 6, 14]);
% time elapsed: 22.08 s
----------
